1501
41 17 61 50 14 55 79 39 89 8 84 65 95 10 36 47 12 81 63 64 66 3 34 38 77 59 29 46 76 85 51 33 18 21 68 40 67 2 78 20 80 60 91 96 71 97 15 42 99 52 90 1 26 19 58 16 49 25 11 43 28 27 62 23 48 98 5 73 32 30 87 94 70 53 86 88 44 75 93 69 83 7 6 54 92 56 13 82 74 35 31 22 72 4 37 24 45 57 9 
